solution status: optimal solution found
objective value:                     116259.697949008
d11(0,0)                                            1 	(obj:0)
d11(2,3)                                            1 	(obj:0)
d11(2,4)                                            1 	(obj:0)
d11(2,5)                                            1 	(obj:0)
d11(2,6)                                            1 	(obj:0)
d11(3,9)                                            1 	(obj:0)
d11(3,11)                                           1 	(obj:0)
d11(3,13)                                           1 	(obj:0)
d12(1,2)                                            1 	(obj:0)
d12(3,8)                                            1 	(obj:0)
d12(3,10)                                           1 	(obj:0)
d12(3,12)                                           1 	(obj:0)
d12(3,14)                                           1 	(obj:0)
d21(2,3)                                            1 	(obj:0)
d21(3,7)                                            1 	(obj:0)
d21(3,8)                                            1 	(obj:0)
d21(3,11)                                           1 	(obj:0)
y2(1,2)                              1385.48851144896 	(obj:0)
y2(3,8)                              1385.48851144895 	(obj:0)
y2(3,10)                             1385.48851144895 	(obj:0)
y2(3,12)                             1385.48851144895 	(obj:0)
y2(3,14)                             1385.48851144895 	(obj:0)
STE(1,1)                             13041.0000000011 	(obj:0)
STE(0,0)                                        14175 	(obj:0)
STE(1,2)                             14357.2140858765 	(obj:0)
STE(2,3)                             7980.74980110876 	(obj:0)
STE(2,4)                             9638.99969999762 	(obj:0)
STE(2,5)                             9296.96388698417 	(obj:0)
STE(2,6)                              10955.213785873 	(obj:0)
STE(3,7)                             6846.74980110876 	(obj:0)
STE(3,8)                             8162.96388698527 	(obj:0)
STE(3,9)                             8504.99969999762 	(obj:0)
STE(3,10)                            9821.21378587412 	(obj:0)
STE(3,11)                            8162.96388698417 	(obj:0)
STE(3,12)                            9479.17797286067 	(obj:0)
STE(3,13)                            9821.21378587297 	(obj:0)
STE(3,14)                            11137.4278717495 	(obj:0)
AVE(2)                               3315.65537776224 	(obj:0)
WB(3)                                3315.65799770399 	(obj:0)
y1(2,3)                              3533.62517900311 	(obj:0)
y1(2,4)                              2041.20027000314 	(obj:0)
y1(2,5)                              3533.62517900311 	(obj:0)
y1(2,6)                              2041.20027000319 	(obj:0)
AVE(3)                               3315.65799770399 	(obj:0)
WB(1)                                3248.33172520918 	(obj:0)
WG(2)                                3315.65537776224 	(obj:10)
BG(1)                                2673.40993877551 	(obj:10)
BG(2)                                2963.49453958791 	(obj:10)
BG(3)                                2673.40993877551 	(obj:10)
AVE(1)                               3248.33172520918 	(obj:0)
